NAME: tsp_302
COMMENT: Random TSP instance
TYPE: TSP
DIMENSION: 50
EDGE_WEIGHT_TYPE: EUC_2D
NODE_COORD_SECTION
1 23 603
2 8 973
3 312 728
4 773 35
5 848 148
6 104 885
7 990 71
8 258 571
9 323 409
10 442 707
11 84 349
12 495 879
13 14 851
14 351 132
15 929 180
16 41 888
17 809 0
18 76 411
19 929 76
20 363 29
21 935 809
22 664 248
23 952 826
24 304 286
25 769 661
26 403 684
27 194 585
28 805 509
29 505 25
30 637 427
31 224 9
32 883 124
33 195 262
34 306 769
35 508 677
36 788 110
37 968 770
38 592 737
39 854 455
40 57 150
41 68 466
42 931 931
43 368 746
44 846 174
45 804 248
46 133 419
47 709 917
48 694 198
49 335 886
50 649 547
